{'code': [3, 19, 1, 7, 3, 12, 12, 9, 14, 5, 19, 4, 12, 19, 6, 16, 7, 5, 17, 13, 16, 4, 12, 4, 10, 5,
 5, 5, 11, 8, 7, 0, 17, 16, 7, 4, 6, 0, 13, 0, 5, 13, 14, 16, 7, 2, 8, 18, 16, 9, 1, 19, 10, 8, 2, 0
, 12, 3, 17, 8, 4, 15, 11, 0, 19, 5, 2, 2, 13, 7, 13, 4, 11, 5, 18, 16, 17, 0, 18, 18, 9, 3, 13, 18,
 11, 19, 16, 2, 6, 9, 17, 12, 15, 16, 9, 6, 10, 10, 7, 9, 6, 1, 16, 14, 9, 10, 19, 6, 0, 15, 11, 10,
 2, 15, 7, 6, 0, 18, 19, 17, 6, 3, 15, 18, 14, 1, 16, 18, 7, 4, 14, 1, 11, 0, 10, 2, 15, 17, 2, 1, 1
3, 1, 11, 7, 14, 4, 7, 15, 5, 15, 19, 9, 18, 4, 3, 12, 8, 6, 9, 17, 10, 1, 12, 3, 14, 4, 18, 15, 8, 
5, 12, 12, 15, 16, 3, 11, 12, 17, 8, 9, 14, 11, 0, 4, 4, 18, 10, 19, 1, 19, 3, 15, 9, 5, 14, 6, 2, 1
, 6, 15, 1, 2, 6, 11, 7, 0, 7, 1, 16, 1, 4, 14, 18, 17, 9, 14, 8, 4, 15, 8, 14, 17, 3, 13, 19, 11, 1
3, 8, 13, 10, 3, 16, 6, 18, 0, 2, 6, 19, 15, 8], 'route': None, 'mac': [[1, 7, 7, 0, 1, 8, 2, 0, 8, 
3, 1, 8], [7, 4, 1, 4, 2, 5, 6, 4, 2, 0, 2, 3, 4], [6, 4, 9, 1, 6, 3, 0, 0, 4, 2, 2], [0, 0, 3, 7, 3
, 7, 3, 4, 2, 6, 0], [7, 3, 4, 9, 3, 9, 6, 7, 4, 1, 3, 4, 0, 0], [1, 9, 0, 2, 4, 3, 7, 7, 1, 6, 8], 
[7, 7, 4, 3, 0, 1, 1, 4, 3, 0, 5, 6, 3, 9], [0, 4, 4, 6, 8, 9, 6, 1, 5, 8, 1, 6, 4], [7, 1, 0, 3, 4,
 6, 9, 8, 8, 1, 7], [3, 0, 2, 9, 8, 6, 4, 3, 1, 2, 5, 0], [8, 4, 5, 3, 3, 4, 6, 2, 0, 3], [9, 0, 3, 
8, 6, 6, 1, 7, 3, 4, 1], [1, 2, 8, 4, 1, 3, 0, 7, 0, 0, 6], [4, 0, 1, 1, 6, 0, 3, 6, 6, 2], [0, 8, 4
, 5, 4, 8, 1, 1, 3, 2, 1, 6], [7, 0, 2, 8, 7, 6, 6, 1, 0, 1, 3, 4, 0, 7], [5, 8, 6, 7, 4, 4, 0, 6, 1
, 9, 2, 2, 4], [1, 3, 4, 4, 2, 6, 8, 0, 9, 7, 0], [2, 1, 6, 1, 2, 0, 2, 1, 9, 4, 1, 6, 4], [3, 1, 6,
 2, 4, 0, 4, 0, 7, 8, 1, 1, 9]], 'wok': None}
